50
1 4210 4000
2 1750 1740
3 4060 1380
4 2810 1800
5 1550 2000
6 2500 4870
7 4300 3020
8 680 730
9 2300 440
10 4280 3050
11 2580 4380
12 1950 2000
13 950 2240
14 3670 30
15 2490 3010
16 2790 2180
17 3870 480
18 1690 2520
19 4020 600
20 4790 3050
21 4890 2040
22 4240 4840
23 3340 40
24 1530 1270
25 3980 2270
26 4520 1120
27 2090 1500
28 4270 4530
29 3640 830
30 670 4490
31 4520 3210
32 470 4400
33 2600 2270
34 1480 1290
35 3700 1110
36 4070 2470
37 2900 2170
38 4250 1070
39 2460 1160
40 2890 430
41 210 4640
42 4750 4090
43 4630 3930
44 1560 450
45 4720 1630
46 1340 4970
47 200 1180
48 450 4200
49 1460 3760
50 910 1650
